CMD:
./solvers/bin/cadical --plain --no-reduce -t 1600 ./data/cnfs//vis_arrays_am2910_p2/vis_arrays_am2910_p2.76.cnf

c --- [ banner ] -------------------------------------------------------------
c 
c CaDiCaL SAT Solver
c Copyright (c) 2016-2024
c A. Biere, M. Fleury, N. Froleyks, K. Fazekas, F. Pollitt, T. Faller
c JKU Linz, University of Freiburg, TU Wien
c 
c Version 2.1.3 5296d3d2a9bf48c154ab2acb5e44625776d821bf
c g++ (Gentoo 12.3.1_p20230526 p2) 12.3.1 20230526 -Wall -Wextra -O3 -DNDEBUG
c Sat Aug 9 07:26:21 PDT 2025 Linux cedar2.int.cedar.computecanada.ca 5.14.0-362.24.2.el9_3.x86_64 x86_64
c 
c --- [ limit ] --------------------------------------------------------------
c 
c setting time limit to 1600 seconds real time (due to '-t 1600')
c 
c --- [ parsing input ] ------------------------------------------------------
c 
c reading DIMACS file from './data/cnfs//vis_arrays_am2910_p2/vis_arrays_am2910_p2.76.cnf'
c opening file to read './data/cnfs//vis_arrays_am2910_p2/vis_arrays_am2910_p2.76.cnf'
c found 'p cnf 17301 46912' header
c parsed 46912 clauses in 0.01 seconds process time
c 
c --- [ options ] ------------------------------------------------------------
c 
c   --compact=false                (different from default 'true')
c   --decompose=false              (different from default 'true')
c   --deduplicate=false            (different from default 'true')
c   --elim=false                   (different from default 'true')
c   --probe=false                  (different from default 'true')
c   --reduce=false                 (different from default 'true')
c   --subsume=false                (different from default 'true')
c   --ternary=false                (different from default 'true')
c   --transred=false               (different from default 'true')
c   --vivify=false                 (different from default 'true')
c 
c --- [ solving ] ------------------------------------------------------------
c 
c time measured in process time since initialization
c 
c  seconds  reductions  redundant  irredundant
c         MB    restarts       trail      variables
c          level   conflicts       glue        remaining
c 
c *  0.01 11  0 0   0    0    0  0% 0 46347 16748 97%
c {  0.01 12  0 0   0    0    0  0% 0 46347 16748 97%
c i  0.01 12 478 0   0   43   41 48% 1 46347 16747 97%
c i  0.01 12 520 0   0   47   44 52% 1 46347 16731 97%
c i  0.01 12 635 0   0   64   56 63% 1 46347 16728 97%
c i  0.01 12 697 0   0   81   70 70% 1 46347 16725 97%
c i  0.01 12 699 0   0   82   70 70% 1 46347 16720 97%
c i  0.02 12 417 0  27  186  164 42% 2 46347 16714 97%
c i  0.02 12 415 0  27  187  164 42% 2 46347 16704 97%
c i  0.02 12 229 0  88  530  482 25% 2 46347 16699 97%
c i  0.02 12 218 0  93  558  504 25% 2 46347 16682 96%
c i  0.02 12 217 0  93  563  507 24% 2 46347 16675 96%
c i  0.02 12 214 0  93  571  514 24% 2 46347 16651 96%
c i  0.02 12 211 0  93  580  520 24% 2 46347 16644 96%
c i  0.02 12 205 0  93  599  535 23% 2 46347 16631 96%
c i  0.02 12 204 0  93  603  538 23% 2 46347 16626 96%
c i  0.02 12 203 0  93  604  538 23% 2 46347 16620 96%
c i  0.02 12 203 0  93  606  539 23% 2 46347 16614 96%
c i  0.02 12 199 0  93  616  545 23% 2 46347 16609 96%
c i  0.02 12 198 0  93  619  547 23% 2 46347 16583 96%
c 
c  seconds   reductions  redundant  irredundant
c         MB     restarts       trail      variables
c           level   conflicts       glue        remaining
c 
c i  0.02 12 196 0  93  626  552 22% 2 46347 16572 96%
c i  0.03 12 169 0 118  901  809 21% 2 46347 16566 96%
c i  0.03 12 169 0 118  902  809 21% 2 46347 16558 96%
c i  0.03 12 169 0 118  905  811 21% 2 46347 16557 96%
c i  0.03 12 168 0 118  911  816 21% 2 46347 16554 96%
c i  0.03 12 167 0 118  958  855 21% 2 46347 16541 96%
c i  0.03 12 166 0 118  969  865 21% 2 46347 16534 96%
c i  0.03 12 165 0 118  986  877 21% 2 46347 16506 95%
c }  0.03 12 165 0 118 1000  888 21% 2 46347 16506 95%
c [  0.03 12  0 0 118 1000  888  0% 0 46347 16506 95%
c O  0.03 12 343 0 118 1005  893 28% 4 46347 16506 95%
c i  0.03 12 529 0 118 1024  911 39% 2 46347 16501 95%
c i  0.03 12 565 0 118 1026  912 41% 2 46347 16496 95%
c i  0.03 12 647 0 118 1032  917 48% 2 46347 16487 95%
c i  0.03 12 694 0 118 1037  921 51% 2 46347 16479 95%
c i  0.03 12 735 0 118 1043  925 54% 2 46347 16474 95%
c i  0.03 12 758 0 118 1048  928 56% 2 46347 16466 95%
c i  0.03 12 768 0 118 1051  929 57% 2 46347 16417 95%
c i  0.03 12 775 0 118 1055  931 58% 1 46347 16412 95%
c i  0.03 12 789 0 118 1063  936 59% 1 46347 16407 95%
c 
c  seconds   reductions  redundant  irredundant
c         MB     restarts       trail      variables
c           level   conflicts       glue        remaining
c 
c i  0.03 12 796 0 118 1070  941 60% 1 46347 16399 95%
c i  0.03 12 803 0 118 1078  947 60% 1 46347 16383 95%
c i  0.03 12 805 0 118 1080  948 60% 1 46347 16377 95%
c i  0.03 12 807 0 118 1086  952 60% 1 46347 16372 95%
... skipped 3 lines ...
c i  0.03 12 807 0 118 1112  967 60% 1 46347 16343 94%
c i  0.03 12 806 0 118 1115  968 60% 1 46347 16335 94%
c i  0.03 12 799 0 118 1136  983 60% 1 46347 16330 94%
c i  0.03 12 797 0 118 1142  986 60% 1 46347 16325 94%
c i  0.03 12 793 0 118 1152  991 59% 1 46347 16297 94%
c i  0.03 12 786 0 118 1163 1001 59% 1 46347 16292 94%
c i  0.03 12 784 0 118 1166 1002 59% 1 46347 16286 94%
c i  0.03 12 773 0 118 1183 1012 58% 1 46347 16281 94%
c i  0.03 12 771 0 118 1186 1013 58% 1 46347 16280 94%
c i  0.03 12 767 0 118 1193 1017 57% 1 46347 16261 94%
c i  0.03 12 765 0 118 1196 1019 57% 1 46347 16257 94%
c i  0.03 12 756 0 118 1207 1029 57% 1 46347 16249 94%
c i  0.03 12 752 0 118 1212 1031 56% 1 46347 16231 94%
c 
c  seconds   reductions  redundant  irredundant
c         MB     restarts       trail      variables
c           level   conflicts       glue        remaining
c 
c i  0.03 12 742 0 118 1225 1042 55% 1 46347 16223 94%
c i  0.03 12 740 0 118 1229 1044 55% 1 46347 16218 94%
c i  0.03 12 734 0 118 1236 1048 55% 1 46347 16205 94%
c i  0.03 12 726 0 118 1246 1054 54% 1 46347 16200 94%
c i  0.03 12 717 0 118 1257 1060 53% 1 46347 16191 94%
c i  0.03 12 710 0 118 1265 1066 53% 1 46347 16183 94%
c i  0.03 12 706 0 118 1269 1069 53% 1 46347 16178 94%
c i  0.03 12 704 0 118 1272 1070 52% 1 46347 16173 93%
c i  0.03 12 701 0 118 1275 1072 52% 1 46347 16157 93%
c i  0.03 12 699 0 118 1277 1073 52% 1 46347 16144 93%
c i  0.03 12 698 0 118 1278 1073 52% 1 46347 16139 93%
c i  0.03 12 681 0 118 1295 1080 51% 1 46347 16134 93%
c i  0.03 12 675 0 118 1301 1085 50% 1 46347 16126 93%
c i  0.03 12 670 0 118 1305 1087 50% 1 46347 16117 93%
c i  0.03 12 668 0 118 1306 1087 50% 1 46347 16112 93%
c i  0.03 12 661 0 118 1309 1089 49% 1 46347 16111 93%
c i  0.03 12 648 0 118 1315 1093 49% 1 46347 16106 93%
c i  0.03 12 633 0 118 1322 1097 48% 1 46347 16101 93%
c i  0.03 12 622 0 118 1327 1099 47% 1 46347 16096 93%
c i  0.03 12 514 0 118 1399 1160 42% 1 46347 16077 93%
c 
c  seconds   reductions  redundant  irredundant
c         MB     restarts       trail      variables
c           level   conflicts       glue        remaining
c 
c i  0.03 12 505 0 118 1406 1165 41% 1 46347 16063 93%
c i  0.03 12 504 0 118 1407 1165 41% 1 46347 16062 93%
c i  0.03 12 503 0 118 1408 1165 41% 1 46347 16060 93%
c ]  0.03 12 501 0 118 1410 1165 41% 1 46347 16033 93%
c 0  0.03 12 501 0 118 1410 1165 41% 1 46347 16033 93%
c 
c --- [ result ] -------------------------------------------------------------
c 
s UNSATISFIABLE
c 
c --- [ run-time profiling ] -------------------------------------------------
c 
c process time taken by individual solving procedures
c (percentage relative to process time for solving)
c 
c         0.03   99.58% search
c         0.02   66.43% unstable
c         0.01   28.52% parse
c         0.01   22.49% stable
c         0.00   10.59% lucky
c         0.00    0.00% simplify
c   =================================
c         0.03   76.92% solve
c 
c last line shows process time for solving
c (percentage relative to total process time)
c 
c --- [ statistics ] ---------------------------------------------------------
c 
c chronological:               824        58.44 %  of conflicts
c conflicts:                  1410     54789.20    per second
c decisions:                 22712    882533.51    per second
c fixed:                      1157         6.69 %  of all variables
c learned:                    1347        95.53 %  per conflict
c learned_lits:               6520       100.00 %  learned literals
c minimized:                     0         0.00 %  learned literals
c shrunken:                    854        13.10 %  learned literals
c minishrunken:                317         4.86 %  learned literals
c otfs:                         39         2.77 %  of conflict
c propagations:             465223        18.08 M  per second
c rephased:                      1      1410.00    interval
c restarts:                    118        11.95    interval
c stabilizing:                   1        29.08 %  of conflicts
c subsumed:                     96         0.20 %  of all clauses
c strengthened:                 39         0.08 %  of all clauses
c 
c seconds are measured in process time for solving
c 
c --- [ resources ] ----------------------------------------------------------
c 
c total process time since initialization:         0.03    seconds
c total real time since initialization:            0.04    seconds
c maximum resident set size of process:           29.34    MB
c 
c --- [ shutting down ] ------------------------------------------------------
c 
c exit 20
